11
2147483647 53 31 86 41 46 21 81 59 98 21 
53 2147483647 73 52 84 93 96 65 53 49 78 
31 73 2147483647 42 75 71 33 39 1 89 31 
86 52 42 2147483647 43 18 45 36 63 36 43 
41 84 75 43 2147483647 27 5 47 30 12 37 
46 93 71 18 27 2147483647 42 20 92 4 87 
21 96 33 45 5 42 2147483647 8 35 5 57 
81 65 39 36 47 20 8 2147483647 17 61 78 
59 53 1 63 30 92 35 17 2147483647 52 50 
98 49 89 36 12 4 5 61 52 2147483647 38 
21 78 31 43 37 87 57 78 50 38 2147483647 
